30
1 0 9
2 0 4
2 1 5
3 0 7
3 1 1
3 2 6
4 0 5
4 1 7
4 2 5
4 3 9
5 0 2
5 1 5
5 2 8
5 3 9
5 4 4
6 0 3
6 1 4
6 2 2
6 3 2
6 4 8
6 5 2
7 0 2
7 1 4
7 2 10
7 3 8
7 4 10
7 5 7
7 6 2
8 0 1
8 1 3
8 2 7
8 3 9
8 4 1
8 5 5
8 6 4
8 7 7
9 0 4
9 1 5
9 2 2
9 3 7
9 4 8
9 5 10
9 6 3
9 7 1
9 8 7
10 0 4
10 1 1
10 2 10
10 3 7
10 4 2
10 5 1
10 6 8
10 7 7
10 8 10
10 9 3
11 0 9
11 1 9
11 2 9
11 3 9
11 4 8
11 5 1
11 6 5
11 7 3
11 8 6
11 9 5
11 10 1
12 0 9
12 1 9
12 2 6
12 3 1
12 4 9
12 5 8
12 6 1
12 7 4
12 8 6
12 9 5
12 10 1
12 11 7
13 0 5
13 1 6
13 2 8
13 3 9
13 4 2
13 5 9
13 6 10
13 7 2
13 8 8
13 9 1
13 10 9
13 11 5
13 12 2
14 0 5
14 1 10
14 2 6
14 3 10
14 4 8
14 5 1
14 6 3
14 7 9
14 8 10
14 9 8
14 10 4
14 11 3
14 12 5
14 13 6
15 0 10
15 1 5
15 2 2
15 3 3
15 4 7
15 5 7
15 6 8
15 7 5
15 8 4
15 9 10
15 10 6
15 11 4
15 12 5
15 13 10
15 14 5
16 0 7
16 1 2
16 2 10
16 3 7
16 4 3
16 5 8
16 6 3
16 7 10
16 8 3
16 9 8
16 10 10
16 11 9
16 12 1
16 13 5
16 14 8
16 15 4
17 0 6
17 1 7
17 2 8
17 3 10
17 4 5
17 5 8
17 6 1
17 7 3
17 8 9
17 9 3
17 10 2
17 11 10
17 12 4
17 13 3
17 14 3
17 15 7
17 16 7
18 0 3
18 1 6
18 2 5
18 3 5
18 4 9
18 5 10
18 6 1
18 7 8
18 8 9
18 9 9
18 10 7
18 11 4
18 12 5
18 13 3
18 14 3
18 15 6
18 16 5
18 17 1
19 0 9
19 1 7
19 2 10
19 3 5
19 4 4
19 5 9
19 6 9
19 7 7
19 8 7
19 9 5
19 10 2
19 11 6
19 12 7
19 13 6
19 14 4
19 15 10
19 16 6
19 17 10
19 18 8
20 0 4
20 1 1
20 2 4
20 3 1
20 4 8
20 5 3
20 6 3
20 7 1
20 8 2
20 9 8
20 10 2
20 11 10
20 12 3
20 13 3
20 14 2
20 15 4
20 16 4
20 17 1
20 18 4
20 19 9
21 0 3
21 1 7
21 2 9
21 3 4
21 4 6
21 5 10
21 6 4
21 7 6
21 8 8
21 9 6
21 10 9
21 11 8
21 12 10
21 13 5
21 14 2
21 15 7
21 16 1
21 17 7
21 18 10
21 19 10
21 20 3
22 0 4
22 1 8
22 2 2
22 3 5
22 4 7
22 5 1
22 6 3
22 7 8
22 8 2
22 9 2
22 10 1
22 11 9
22 12 6
22 13 10
22 14 7
22 15 5
22 16 6
22 17 10
22 18 1
22 19 2
22 20 6
22 21 1
23 0 4
23 1 6
23 2 4
23 3 2
23 4 8
23 5 4
23 6 6
23 7 5
23 8 4
23 9 7
23 10 6
23 11 7
23 12 4
23 13 2
23 14 6
23 15 7
23 16 3
23 17 9
23 18 9
23 19 6
23 20 9
23 21 10
23 22 10
24 0 8
24 1 7
24 2 3
24 3 5
24 4 9
24 5 7
24 6 7
24 7 3
24 8 2
24 9 10
24 10 10
24 11 2
24 12 1
24 13 2
24 14 1
24 15 3
24 16 10
24 17 1
24 18 7
24 19 5
24 20 1
24 21 9
24 22 9
24 23 3
25 0 8
25 1 9
25 2 6
25 3 7
25 4 5
25 5 5
25 6 9
25 7 8
25 8 10
25 9 4
25 10 9
25 11 10
25 12 9
25 13 9
25 14 2
25 15 5
25 16 10
25 17 2
25 18 1
25 19 10
25 20 8
25 21 3
25 22 9
25 23 10
25 24 2
26 0 2
26 1 8
26 2 6
26 3 6
26 4 1
26 5 2
26 6 1
26 7 3
26 8 4
26 9 7
26 10 7
26 11 7
26 12 4
26 13 6
26 14 9
26 15 8
26 16 2
26 17 1
26 18 3
26 19 3
26 20 4
26 21 8
26 22 5
26 23 1
26 24 3
26 25 6
27 0 9
27 1 7
27 2 9
27 3 8
27 4 10
27 5 10
27 6 3
27 7 4
27 8 2
27 9 8
27 10 4
27 11 7
27 12 10
27 13 1
27 14 3
27 15 1
27 16 10
27 17 9
27 18 8
27 19 8
27 20 1
27 21 1
27 22 8
27 23 4
27 24 8
27 25 7
27 26 9
28 0 9
28 1 9
28 2 3
28 3 5
28 4 2
28 5 5
28 6 10
28 7 4
28 8 2
28 9 5
28 10 7
28 11 3
28 12 9
28 13 8
28 14 3
28 15 2
28 16 7
28 17 7
28 18 5
28 19 5
28 20 1
28 21 10
28 22 5
28 23 9
28 24 2
28 25 4
28 26 8
28 27 1
29 0 9
29 1 6
29 2 6
29 3 7
29 4 7
29 5 1
29 6 4
29 7 6
29 8 2
29 9 9
29 10 10
29 11 1
29 12 6
29 13 7
29 14 3
29 15 3
29 16 3
29 17 3
29 18 5
29 19 5
29 20 5
29 21 3
29 22 3
29 23 6
29 24 4
29 25 10
29 26 1
29 27 8
29 28 4
